<instance format="XCSP3" type="CSP">
  <variables>
    <array id="x" size="[56]"> 0 1 </array>
  </variables>
  <constraints>
    <group>
      <extension>
        <list> %0 %1 </list>
        <conflicts> (1,1) </conflicts>
      </extension>
      <args> x[0] x[7] </args>
      <args> x[0] x[14] </args>
      <args> x[0] x[21] </args>
      <args> x[0] x[28] </args>
      <args> x[0] x[35] </args>
      <args> x[0] x[42] </args>
      <args> x[0] x[49] </args>
      <args> x[7] x[14] </args>
      <args> x[7] x[21] </args>
      <args> x[7] x[28] </args>
      <args> x[7] x[35] </args>
      <args> x[7] x[42] </args>
      <args> x[7] x[49] </args>
      <args> x[14] x[21] </args>
      <args> x[14] x[28] </args>
      <args> x[14] x[35] </args>
      <args> x[14] x[42] </args>
      <args> x[14] x[49] </args>
      <args> x[21] x[28] </args>
      <args> x[21] x[35] </args>
      <args> x[21] x[42] </args>
      <args> x[21] x[49] </args>
      <args> x[28] x[35] </args>
      <args> x[28] x[42] </args>
      <args> x[28] x[49] </args>
      <args> x[35] x[42] </args>
      <args> x[35] x[49] </args>
      <args> x[42] x[49] </args>
      <args> x[1] x[8] </args>
      <args> x[1] x[15] </args>
      <args> x[1] x[22] </args>
      <args> x[1] x[29] </args>
      <args> x[1] x[36] </args>
      <args> x[1] x[43] </args>
      <args> x[1] x[50] </args>
      <args> x[8] x[15] </args>
      <args> x[8] x[22] </args>
      <args> x[8] x[29] </args>
      <args> x[8] x[36] </args>
      <args> x[8] x[43] </args>
      <args> x[8] x[50] </args>
      <args> x[15] x[22] </args>
      <args> x[15] x[29] </args>
      <args> x[15] x[36] </args>
      <args> x[15] x[43] </args>
      <args> x[15] x[50] </args>
      <args> x[22] x[29] </args>
      <args> x[22] x[36] </args>
      <args> x[22] x[43] </args>
      <args> x[22] x[50] </args>
      <args> x[29] x[36] </args>
      <args> x[29] x[43] </args>
      <args> x[29] x[50] </args>
      <args> x[36] x[43] </args>
      <args> x[36] x[50] </args>
      <args> x[43] x[50] </args>
      <args> x[2] x[9] </args>
      <args> x[2] x[16] </args>
      <args> x[2] x[23] </args>
      <args> x[2] x[30] </args>
      <args> x[2] x[37] </args>
      <args> x[2] x[44] </args>
      <args> x[2] x[51] </args>
      <args> x[9] x[16] </args>
      <args> x[9] x[23] </args>
      <args> x[9] x[30] </args>
      <args> x[9] x[37] </args>
      <args> x[9] x[44] </args>
      <args> x[9] x[51] </args>
      <args> x[16] x[23] </args>
      <args> x[16] x[30] </args>
      <args> x[16] x[37] </args>
      <args> x[16] x[44] </args>
      <args> x[16] x[51] </args>
      <args> x[23] x[30] </args>
      <args> x[23] x[37] </args>
      <args> x[23] x[44] </args>
      <args> x[23] x[51] </args>
      <args> x[30] x[37] </args>
      <args> x[30] x[44] </args>
      <args> x[30] x[51] </args>
      <args> x[37] x[44] </args>
      <args> x[37] x[51] </args>
      <args> x[44] x[51] </args>
      <args> x[3] x[10] </args>
      <args> x[3] x[17] </args>
      <args> x[3] x[24] </args>
      <args> x[3] x[31] </args>
      <args> x[3] x[38] </args>
      <args> x[3] x[45] </args>
      <args> x[3] x[52] </args>
      <args> x[10] x[17] </args>
      <args> x[10] x[24] </args>
      <args> x[10] x[31] </args>
      <args> x[10] x[38] </args>
      <args> x[10] x[45] </args>
      <args> x[10] x[52] </args>
      <args> x[17] x[24] </args>
      <args> x[17] x[31] </args>
      <args> x[17] x[38] </args>
      <args> x[17] x[45] </args>
      <args> x[17] x[52] </args>
      <args> x[24] x[31] </args>
      <args> x[24] x[38] </args>
      <args> x[24] x[45] </args>
      <args> x[24] x[52] </args>
      <args> x[31] x[38] </args>
      <args> x[31] x[45] </args>
      <args> x[31] x[52] </args>
      <args> x[38] x[45] </args>
      <args> x[38] x[52] </args>
      <args> x[45] x[52] </args>
      <args> x[4] x[11] </args>
      <args> x[4] x[18] </args>
      <args> x[4] x[25] </args>
      <args> x[4] x[32] </args>
      <args> x[4] x[39] </args>
      <args> x[4] x[46] </args>
      <args> x[4] x[53] </args>
      <args> x[11] x[18] </args>
      <args> x[11] x[25] </args>
      <args> x[11] x[32] </args>
      <args> x[11] x[39] </args>
      <args> x[11] x[46] </args>
      <args> x[11] x[53] </args>
      <args> x[18] x[25] </args>
      <args> x[18] x[32] </args>
      <args> x[18] x[39] </args>
      <args> x[18] x[46] </args>
      <args> x[18] x[53] </args>
      <args> x[25] x[32] </args>
      <args> x[25] x[39] </args>
      <args> x[25] x[46] </args>
      <args> x[25] x[53] </args>
      <args> x[32] x[39] </args>
      <args> x[32] x[46] </args>
      <args> x[32] x[53] </args>
      <args> x[39] x[46] </args>
      <args> x[39] x[53] </args>
      <args> x[46] x[53] </args>
      <args> x[5] x[12] </args>
      <args> x[5] x[19] </args>
      <args> x[5] x[26] </args>
      <args> x[5] x[33] </args>
      <args> x[5] x[40] </args>
      <args> x[5] x[47] </args>
      <args> x[5] x[54] </args>
      <args> x[12] x[19] </args>
      <args> x[12] x[26] </args>
      <args> x[12] x[33] </args>
      <args> x[12] x[40] </args>
      <args> x[12] x[47] </args>
      <args> x[12] x[54] </args>
      <args> x[19] x[26] </args>
      <args> x[19] x[33] </args>
      <args> x[19] x[40] </args>
      <args> x[19] x[47] </args>
      <args> x[19] x[54] </args>
      <args> x[26] x[33] </args>
      <args> x[26] x[40] </args>
      <args> x[26] x[47] </args>
      <args> x[26] x[54] </args>
      <args> x[33] x[40] </args>
      <args> x[33] x[47] </args>
      <args> x[33] x[54] </args>
      <args> x[40] x[47] </args>
      <args> x[40] x[54] </args>
      <args> x[47] x[54] </args>
      <args> x[6] x[13] </args>
      <args> x[6] x[20] </args>
      <args> x[6] x[27] </args>
      <args> x[6] x[34] </args>
      <args> x[6] x[41] </args>
      <args> x[6] x[48] </args>
      <args> x[6] x[55] </args>
      <args> x[13] x[20] </args>
      <args> x[13] x[27] </args>
      <args> x[13] x[34] </args>
      <args> x[13] x[41] </args>
      <args> x[13] x[48] </args>
      <args> x[13] x[55] </args>
      <args> x[20] x[27] </args>
      <args> x[20] x[34] </args>
      <args> x[20] x[41] </args>
      <args> x[20] x[48] </args>
      <args> x[20] x[55] </args>
      <args> x[27] x[34] </args>
      <args> x[27] x[41] </args>
      <args> x[27] x[48] </args>
      <args> x[27] x[55] </args>
      <args> x[34] x[41] </args>
      <args> x[34] x[48] </args>
      <args> x[34] x[55] </args>
      <args> x[41] x[48] </args>
      <args> x[41] x[55] </args>
      <args> x[48] x[55] </args>
    </group>
    <group>
      <extension>
        <list> %... </list>
        <conflicts> (0,0,0,0,0,0,0) </conflicts>
      </extension>
      <args> x[6] x[5] x[4] x[3] x[2] x[1] x[0] </args>
      <args> x[13] x[12] x[11] x[10] x[9] x[8] x[7] </args>
      <args> x[20] x[19] x[18] x[17] x[16] x[15] x[14] </args>
      <args> x[27] x[26] x[25] x[24] x[23] x[22] x[21] </args>
      <args> x[34] x[33] x[32] x[31] x[30] x[29] x[28] </args>
      <args> x[41] x[40] x[39] x[38] x[37] x[36] x[35] </args>
      <args> x[48] x[47] x[46] x[45] x[44] x[43] x[42] </args>
      <args> x[55] x[54] x[53] x[52] x[51] x[50] x[49] </args>
    </group>
  </constraints>
</instance>
